80 8
99 29
13 24
56 9
26 86
3 36
49 58
50 59
11 37
44 2
49 78
29 82
23 2
46 93
20 73
23 20
87 95
79 58
95 82
96 48
96 72
83 73
6 4
24 57
82 34
65 59
63 57
86 68
95 12
38 24
85 78
98 94
38 60
82 40
87 98
71 89
63 69
65 43
95 91
11 91
79 80
20 52
46 93
51 80
95 14
34 95
26 73
86 74
61 63
78 31
37 5
100 99
56 97
63 90
59 67
62 63
63 29
10 95
77 35
63 53
92 27
99 41
72 58
43 24
38 44
7 62
61 17
18 33
70 27
52 90
27 52
73 12
23 17
79 9
95 79
65 83
36 52
77 58
47 33
15 26
55 67
384 765
427 711
184 483
267 501
290 726
320 797
337 823
192 475
